ALGO = Normal
EDIFF = 1e-06
ENCUT = 520
IBRION = -1
ICHARG = 0
ISIF = 3
ISMEAR = -5
ISPIN = 2
ISTART = 1
ISYM = 0
LASPH = True
LMAXMIX = 4
LORBIT = 11
LREAL = Auto
LWAVE = True
MAGMOM = 1*-0.003 1*-0.002
NBANDS = 13
NELM = 100
NPAR = 8
NSW = 0
PREC = Accurate
SIGMA = 0.05
