Ti1 B1
1.0
0.000000 2.481182 2.481182
2.481182 0.000000 2.481182
2.481182 2.481182 0.000000
Ti B
1 1
direct
0.750000 0.750000 0.750000 Ti
0.000000 0.000000 0.000000 B
